(set-logic ALL)
(declare-const BAV1 Bool)
(declare-const GEN2 Real)
(declare-const GEN1 Real)
(declare-fun x () Real)
(assert (< (sin GEN1) (sin GEN2)))
(assert (= BAV1 (< (sin GEN1) (sin GEN2))))
(check-sat)
(get-model)